(set-logic QF_FPABV)
(declare-fun b41 () (_ FP 8 24))
(declare-fun b32 () (_ FP 8 24))
(declare-fun b20 () (_ FP 8 24))
(declare-fun b10 () (_ FP 8 24))
(declare-fun b38 () (_ FP 8 24))
(declare-fun b11 () (_ FP 8 24))
(declare-fun b23 () (_ FP 8 24))
(declare-fun b14 () (_ FP 8 24))
(declare-fun b17 () (_ FP 8 24))
(declare-fun b70 () (_ FP 8 24))
(declare-fun b26 () (_ FP 8 24))
(declare-fun b35 () (_ FP 8 24))
(declare-fun b29 () (_ FP 8 24))
(define-fun .3 () RoundingMode roundNearestTiesToEven)
(define-fun .9 () (_ FP 8 24) b11)
(define-fun .10 () (_ FP 8 24) b41)
(define-fun .11 () Bool (< .9 .10))
(define-fun .12 () (_ FP 8 24) b10)
(define-fun .13 () (_ FP 8 24) (/ .3 .12 .9))
(define-fun .14 () (_ FP 8 24) b14)
(define-fun .15 () (_ FP 8 24) (/ .3 .13 .14))
(define-fun .16 () (_ FP 8 24) b17)
(define-fun .17 () (_ FP 8 24) (/ .3 .15 .16))
(define-fun .18 () (_ FP 8 24) b20)
(define-fun .19 () (_ FP 8 24) (/ .3 .17 .18))
(define-fun .20 () (_ FP 8 24) b23)
(define-fun .21 () (_ FP 8 24) (/ .3 .19 .20))
(define-fun .22 () (_ FP 8 24) b26)
(define-fun .23 () (_ FP 8 24) (/ .3 .21 .22))
(define-fun .24 () (_ FP 8 24) b29)
(define-fun .25 () (_ FP 8 24) (/ .3 .23 .24))
(define-fun .26 () (_ FP 8 24) b32)
(define-fun .27 () (_ FP 8 24) (/ .3 .25 .26))
(define-fun .28 () (_ FP 8 24) b35)
(define-fun .29 () (_ FP 8 24) (/ .3 .27 .28))
(define-fun .30 () (_ FP 8 24) b38)
(define-fun .31 () (_ FP 8 24) (/ .3 .29 .30))
(define-fun .32 () Bool (< .31 .10))
(define-fun .33 () Bool (and .11 .32))
(define-fun .34 () (_ FP 8 24) b70)
(define-fun .35 () Bool (< .34 .9))
(define-fun .36 () Bool (and .33 .35))
(define-fun .37 () Bool (< .14 .10))
(define-fun .38 () Bool (and .36 .37))
(define-fun .39 () Bool (< .34 .14))
(define-fun .40 () Bool (and .38 .39))
(define-fun .41 () Bool (< .16 .10))
(define-fun .42 () Bool (and .40 .41))
(define-fun .43 () Bool (< .34 .16))
(define-fun .44 () Bool (and .42 .43))
(define-fun .45 () Bool (< .18 .10))
(define-fun .46 () Bool (and .44 .45))
(define-fun .47 () Bool (< .34 .18))
(define-fun .48 () Bool (and .46 .47))
(define-fun .49 () Bool (< .20 .10))
(define-fun .50 () Bool (and .48 .49))
(define-fun .51 () Bool (< .34 .20))
(define-fun .52 () Bool (and .50 .51))
(define-fun .53 () Bool (< .22 .10))
(define-fun .54 () Bool (and .52 .53))
(define-fun .55 () Bool (< .34 .22))
(define-fun .56 () Bool (and .54 .55))
(define-fun .57 () Bool (< .24 .10))
(define-fun .58 () Bool (and .56 .57))
(define-fun .59 () Bool (< .34 .24))
(define-fun .60 () Bool (and .58 .59))
(define-fun .61 () Bool (< .26 .10))
(define-fun .62 () Bool (and .60 .61))
(define-fun .63 () Bool (< .34 .26))
(define-fun .64 () Bool (and .62 .63))
(define-fun .65 () Bool (< .28 .10))
(define-fun .66 () Bool (and .64 .65))
(define-fun .67 () Bool (< .34 .28))
(define-fun .68 () Bool (and .66 .67))
(define-fun .69 () Bool (< .30 .10))
(define-fun .70 () Bool (and .68 .69))
(define-fun .71 () Bool (< .34 .30))
(define-fun .72 () Bool (and .70 .71))
(assert .72)
(check-sat)
